/* Objective function */
min: +y1 +y2 +y3 +y4 +y5;

/* Constraints */
+x11 +x12 +x13 +x14 +x15 = 1;
+x21 +x22 +x23 +x24 +x25 = 1;
+x31 +x32 +x33 +x34 +x35 = 1;
+x41 +x42 +x43 +x44 +x45 = 1;
+x51 +x52 +x53 +x54 +x55 = 1;
+5 x11 +x21 +x31 +4 x41 +4 x51 <= 7;
+5 x12 +x22 +x32 +4 x42 +4 x52 <= 7;
+5 x13 +x23 +x33 +4 x43 +4 x53 <= 7;
+5 x14 +x24 +x34 +4 x44 +4 x54 <= 7;
+5 x15 +x25 +x35 +4 x45 +4 x55 <= 7;
+2 x11 +x21 +x31 +x41 +x51 <= 6;
+2 x12 +x22 +x32 +x42 +x52 <= 6;
+2 x13 +x23 +x33 +x43 +x53 <= 6;
+2 x14 +x24 +x34 +x44 +x54 <= 6;
+2 x15 +x25 +x35 +x45 +x55 <= 6;
-21 y1 +x11 +x21 +x31 +x41 +x51 <= 0;
-21 y2 +x12 +x22 +x32 +x42 +x52 <= 0;
-21 y3 +x13 +x23 +x33 +x43 +x53 <= 0;
-21 y4 +x14 +x24 +x34 +x44 +x54 <= 0;
-21 y5 +x15 +x25 +x35 +x45 +x55 <= 0;

/* Variable bounds */
y1 <= 1;
y2 <= 1;
y3 <= 1;
y4 <= 1;
y5 <= 1;
x11 <= 1;
x12 <= 1;
x13 <= 1;
x14 <= 1;
x15 <= 1;
x21 <= 1;
x22 <= 1;
x23 <= 1;
x24 <= 1;
x25 <= 1;
x31 <= 1;
x32 <= 1;
x33 <= 1;
x34 <= 1;
x35 <= 1;
x41 <= 1;
x42 <= 1;
x43 <= 1;
x44 <= 1;
x45 <= 1;
x51 <= 1;
x52 <= 1;
x53 <= 1;
x54 <= 1;
x55 <= 1;

/* Integer definitions */
int y1,y2,y3,y4,y5,x11,x12,x13,x14,x15,x21,x22,x23,x24,x25,x31,x32,x33,x34,x35,x41,x42,x43,x44,x45,x51,x52,x53,x54,x55;
